nN = 8;
nR = 40;
nH = 2;

a = [[22, 21, 20, 16, 15, 17, 18, 15, 24, 16, 18, 16, 23, 16, 18, 15, 17, 17, 23, 21, 17, 19, 22, 22, 18, 16, 25, 18, 25, 21, 23, 23, 15, 19, 16, 20, 15, 18, 23, 23], [20, 25, 24, 17, 20, 19, 23, 22, 17, 16, 19, 24, 18, 18, 19, 24, 16, 25, 20, 20, 24, 22, 23, 18, 17, 16, 15, 23, 23, 16, 15, 20, 22, 22, 25, 20, 24, 17, 24, 24], [22, 24, 17, 20, 21, 18, 16, 22, 24, 22, 24, 18, 16, 20, 15, 15, 24, 16, 21, 15, 20, 18, 17, 15, 21, 15, 22, 18, 22, 17, 24, 21, 18, 16, 20, 15, 16, 19, 19, 21], [19, 24, 24, 19, 17, 18, 25, 16, 20, 23, 22, 18, 16, 15, 16, 21, 25, 16, 25, 22, 25, 15, 19, 20, 16, 25, 17, 23, 23, 16, 25, 22, 22, 22, 20, 16, 22, 15, 20, 20], [22, 20, 24, 21, 24, 21, 24, 20, 21, 25, 22, 19, 17, 20, 23, 23, 20, 24, 23, 16, 19, 23, 20, 22, 19, 21, 20, 22, 19, 23, 21, 17, 21, 22, 24, 17, 22, 18, 15, 21], [20, 20, 18, 20, 22, 15, 20, 16, 25, 22, 19, 25, 17, 23, 18, 22, 24, 24, 15, 25, 23, 18, 15, 18, 17, 20, 16, 20, 15, 22, 18, 25, 18, 17, 21, 17, 24, 17, 24, 22], [25, 24, 22, 25, 17, 19, 23, 19, 16, 15, 15, 16, 21, 22, 23, 15, 20, 23, 22, 20, 16, 24, 20, 24, 25, 15, 21, 15, 25, 18, 16, 15, 24, 16, 15, 17, 17, 17, 15, 15], [21, 22, 25, 18, 25, 15, 24, 15, 25, 24, 15, 18, 16, 15, 17, 18, 15, 19, 22, 24, 25, 21, 23, 24, 17, 24, 20, 23, 20, 22, 24, 16, 25, 25, 18, 15, 24, 23, 24, 22]];
c = [[[0, 0, 0, 0, 0, 0, 0, 0, 0, 0, 0, 0, 0, 0, 0, 0, 0, 0, 0, 0, 0, 0, 0, 0, 0, 0, 0, 0, 0, 0, 0, 0, 0, 0, 0, 0, 0, 0, 0, 0], [42, 31, 48, 40, 42, 39, 47, 37, 33, 45, 32, 38, 33, 45, 38, 35, 50, 31, 43, 42, 43, 39, 47, 46, 42, 32, 43, 42, 40, 45, 39, 30, 39, 37, 44, 33, 48, 37, 49, 50], [34, 37, 49, 30, 50, 41, 43, 37, 41, 38, 30, 32, 41, 44, 30, 40, 32, 43, 47, 37, 47, 36, 44, 31, 36, 33, 37, 47, 45, 36, 31, 49, 43, 31, 34, 32, 45, 40, 38, 45], [41, 34, 48, 30, 43, 33, 41, 43, 43, 46, 31, 36, 41, 46, 42, 31, 46, 32, 43, 40, 37, 42, 32, 35, 47, 32, 35, 46, 46, 45, 35, 43, 49, 48, 42, 40, 47, 43, 36, 43], [36, 40, 50, 49, 43, 41, 45, 31, 32, 42, 49, 45, 36, 35, 33, 45, 45, 43, 32, 33, 32, 48, 31, 36, 32, 31, 42, 34, 34, 47, 44, 45, 33, 41, 45, 49, 33, 37, 32, 40], [30, 32, 39, 41, 41, 34, 34, 30, 38, 41, 44, 48, 34, 46, 38, 36, 31, 44, 32, 35, 34, 38, 34, 48, 34, 33, 36, 38, 49, 32, 42, 47, 39, 32, 44, 46, 43, 48, 31, 32], [39, 33, 35, 37, 40, 39, 44, 43, 36, 36, 35, 41, 31, 33, 42, 46, 38, 37, 42, 36, 44, 42, 42, 34, 45, 40, 43, 45, 40, 32, 34, 45, 32, 30, 42, 46, 49, 40, 42, 30], [32, 46, 35, 50, 37, 44, 35, 50, 30, 46, 33, 45, 49, 45, 47, 33, 33, 31, 34, 47, 41, 45, 42, 42, 43, 45, 42, 48, 40, 30, 40, 34, 40, 48, 43, 39, 44, 30, 38, 50]], [[0, 0, 0, 0, 0, 0, 0, 0, 0, 0, 0, 0, 0, 0, 0, 0, 0, 0, 0, 0, 0, 0, 0, 0, 0, 0, 0, 0, 0, 0, 0, 0, 0, 0, 0, 0, 0, 0, 0, 0], [0, 0, 0, 0, 0, 0, 0, 0, 0, 0, 0, 0, 0, 0, 0, 0, 0, 0, 0, 0, 0, 0, 0, 0, 0, 0, 0, 0, 0, 0, 0, 0, 0, 0, 0, 0, 0, 0, 0, 0], [49, 32, 39, 38, 40, 33, 35, 41, 38, 49, 41, 42, 35, 46, 37, 40, 30, 31, 30, 39, 44, 41, 50, 36, 31, 40, 48, 34, 44, 35, 31, 34, 32, 31, 35, 45, 36, 31, 38, 47], [38, 42, 48, 31, 34, 48, 48, 43, 36, 36, 40, 45, 41, 48, 39, 50, 46, 48, 47, 50, 34, 38, 31, 39, 49, 40, 42, 31, 33, 43, 46, 38, 48, 49, 40, 33, 35, 42, 37, 35], [50, 42, 31, 49, 32, 35, 50, 50, 42, 32, 39, 47, 33, 37, 33, 40, 32, 35, 49, 31, 43, 41, 39, 45, 43, 50, 33, 41, 46, 50, 34, 36, 47, 33, 38, 46, 33, 38, 46, 34], [36, 44, 40, 42, 37, 37, 36, 34, 48, 36, 33, 44, 47, 50, 33, 50, 39, 46, 32, 36, 47, 43, 41, 31, 33, 47, 43, 32, 45, 39, 34, 47, 38, 39, 37, 39, 39, 40, 45, 50], [49, 41, 43, 47, 49, 35, 45, 49, 49, 33, 31, 33, 44, 31, 30, 35, 31, 37, 46, 47, 33, 46, 35, 50, 43, 43, 34, 50, 46, 47, 48, 34, 31, 31, 38, 30, 42, 34, 36, 39], [45, 45, 41, 37, 50, 31, 31, 48, 34, 36, 40, 43, 35, 49, 50, 36, 31, 34, 48, 46, 50, 36, 31, 44, 49, 36, 37, 47, 37, 46, 46, 37, 46, 47, 30, 38, 40, 33, 44, 34]], [[0, 0, 0, 0, 0, 0, 0, 0, 0, 0, 0, 0, 0, 0, 0, 0, 0, 0, 0, 0, 0, 0, 0, 0, 0, 0, 0, 0, 0, 0, 0, 0, 0, 0, 0, 0, 0, 0, 0, 0], [0, 0, 0, 0, 0, 0, 0, 0, 0, 0, 0, 0, 0, 0, 0, 0, 0, 0, 0, 0, 0, 0, 0, 0, 0, 0, 0, 0, 0, 0, 0, 0, 0, 0, 0, 0, 0, 0, 0, 0], [0, 0, 0, 0, 0, 0, 0, 0, 0, 0, 0, 0, 0, 0, 0, 0, 0, 0, 0, 0, 0, 0, 0, 0, 0, 0, 0, 0, 0, 0, 0, 0, 0, 0, 0, 0, 0, 0, 0, 0], [40, 36, 50, 37, 50, 42, 50, 40, 49, 47, 42, 31, 38, 39, 35, 39, 34, 43, 46, 41, 49, 39, 36, 40, 30, 41, 48, 33, 32, 40, 31, 48, 50, 49, 49, 43, 42, 31, 50, 35], [46, 43, 41, 33, 47, 44, 36, 49, 41, 34, 39, 35, 46, 36, 43, 42, 36, 34, 39, 48, 35, 41, 39, 42, 48, 30, 36, 45, 34, 38, 36, 44, 44, 46, 49, 33, 38, 46, 49, 47], [38, 31, 49, 50, 41, 45, 38, 30, 37, 42, 42, 39, 48, 32, 35, 35, 48, 44, 50, 39, 36, 43, 32, 47, 49, 32, 42, 34, 32, 37, 36, 40, 35, 47, 41, 31, 38, 36, 36, 44], [38, 36, 32, 32, 44, 43, 45, 36, 31, 44, 34, 47, 38, 43, 30, 38, 42, 43, 37, 38, 47, 45, 46, 42, 31, 50, 31, 43, 30, 33, 47, 32, 38, 35, 40, 39, 50, 38, 32, 34], [31, 41, 42, 40, 33, 38, 33, 40, 49, 40, 31, 39, 34, 38, 32, 48, 33, 32, 49, 30, 43, 31, 32, 42, 44, 40, 48, 30, 43, 40, 48, 31, 43, 41, 46, 39, 38, 37, 40, 40]], [[0, 0, 0, 0, 0, 0, 0, 0, 0, 0, 0, 0, 0, 0, 0, 0, 0, 0, 0, 0, 0, 0, 0, 0, 0, 0, 0, 0, 0, 0, 0, 0, 0, 0, 0, 0, 0, 0, 0, 0], [0, 0, 0, 0, 0, 0, 0, 0, 0, 0, 0, 0, 0, 0, 0, 0, 0, 0, 0, 0, 0, 0, 0, 0, 0, 0, 0, 0, 0, 0, 0, 0, 0, 0, 0, 0, 0, 0, 0, 0], [0, 0, 0, 0, 0, 0, 0, 0, 0, 0, 0, 0, 0, 0, 0, 0, 0, 0, 0, 0, 0, 0, 0, 0, 0, 0, 0, 0, 0, 0, 0, 0, 0, 0, 0, 0, 0, 0, 0, 0], [0, 0, 0, 0, 0, 0, 0, 0, 0, 0, 0, 0, 0, 0, 0, 0, 0, 0, 0, 0, 0, 0, 0, 0, 0, 0, 0, 0, 0, 0, 0, 0, 0, 0, 0, 0, 0, 0, 0, 0], [30, 38, 41, 49, 33, 33, 41, 34, 47, 49, 34, 50, 48, 46, 35, 35, 37, 46, 46, 43, 44, 31, 50, 39, 44, 47, 45, 30, 42, 40, 41, 41, 30, 35, 35, 41, 45, 49, 47, 32], [46, 40, 48, 44, 44, 45, 47, 34, 41, 48, 45, 33, 46, 37, 31, 39, 31, 41, 41, 34, 50, 40, 49, 43, 39, 50, 30, 47, 38, 45, 32, 32, 50, 48, 49, 43, 43, 38, 45, 31], [34, 41, 30, 40, 45, 30, 40, 31, 44, 32, 49, 36, 32, 43, 38, 47, 31, 36, 30, 38, 42, 42, 49, 35, 38, 44, 49, 48, 31, 34, 45, 33, 50, 40, 50, 49, 41, 47, 34, 33], [37, 44, 49, 39, 47, 38, 35, 33, 38, 48, 47, 43, 43, 42, 34, 49, 31, 45, 36, 38, 31, 43, 46, 31, 43, 50, 43, 33, 31, 48, 47, 36, 49, 49, 31, 34, 43, 39, 36, 49]], [[0, 0, 0, 0, 0, 0, 0, 0, 0, 0, 0, 0, 0, 0, 0, 0, 0, 0, 0, 0, 0, 0, 0, 0, 0, 0, 0, 0, 0, 0, 0, 0, 0, 0, 0, 0, 0, 0, 0, 0], [0, 0, 0, 0, 0, 0, 0, 0, 0, 0, 0, 0, 0, 0, 0, 0, 0, 0, 0, 0, 0, 0, 0, 0, 0, 0, 0, 0, 0, 0, 0, 0, 0, 0, 0, 0, 0, 0, 0, 0], [0, 0, 0, 0, 0, 0, 0, 0, 0, 0, 0, 0, 0, 0, 0, 0, 0, 0, 0, 0, 0, 0, 0, 0, 0, 0, 0, 0, 0, 0, 0, 0, 0, 0, 0, 0, 0, 0, 0, 0], [0, 0, 0, 0, 0, 0, 0, 0, 0, 0, 0, 0, 0, 0, 0, 0, 0, 0, 0, 0, 0, 0, 0, 0, 0, 0, 0, 0, 0, 0, 0, 0, 0, 0, 0, 0, 0, 0, 0, 0], [0, 0, 0, 0, 0, 0, 0, 0, 0, 0, 0, 0, 0, 0, 0, 0, 0, 0, 0, 0, 0, 0, 0, 0, 0, 0, 0, 0, 0, 0, 0, 0, 0, 0, 0, 0, 0, 0, 0, 0], [48, 48, 49, 42, 46, 31, 39, 43, 39, 47, 43, 48, 36, 39, 49, 36, 33, 37, 39, 50, 45, 46, 30, 49, 42, 39, 50, 43, 42, 33, 36, 49, 37, 37, 36, 38, 37, 37, 35, 49], [37, 38, 31, 43, 45, 47, 37, 46, 30, 47, 43, 37, 32, 33, 40, 39, 35, 45, 37, 38, 42, 39, 46, 33, 35, 35, 39, 46, 49, 42, 31, 48, 32, 33, 34, 41, 45, 37, 40, 42], [30, 32, 40, 41, 33, 35, 41, 46, 48, 49, 43, 44, 44, 46, 38, 32, 45, 49, 32, 50, 45, 40, 41, 36, 36, 50, 48, 35, 41, 37, 39, 48, 41, 36, 45, 50, 43, 44, 44, 33]], [[0, 0, 0, 0, 0, 0, 0, 0, 0, 0, 0, 0, 0, 0, 0, 0, 0, 0, 0, 0, 0, 0, 0, 0, 0, 0, 0, 0, 0, 0, 0, 0, 0, 0, 0, 0, 0, 0, 0, 0], [0, 0, 0, 0, 0, 0, 0, 0, 0, 0, 0, 0, 0, 0, 0, 0, 0, 0, 0, 0, 0, 0, 0, 0, 0, 0, 0, 0, 0, 0, 0, 0, 0, 0, 0, 0, 0, 0, 0, 0], [0, 0, 0, 0, 0, 0, 0, 0, 0, 0, 0, 0, 0, 0, 0, 0, 0, 0, 0, 0, 0, 0, 0, 0, 0, 0, 0, 0, 0, 0, 0, 0, 0, 0, 0, 0, 0, 0, 0, 0], [0, 0, 0, 0, 0, 0, 0, 0, 0, 0, 0, 0, 0, 0, 0, 0, 0, 0, 0, 0, 0, 0, 0, 0, 0, 0, 0, 0, 0, 0, 0, 0, 0, 0, 0, 0, 0, 0, 0, 0], [0, 0, 0, 0, 0, 0, 0, 0, 0, 0, 0, 0, 0, 0, 0, 0, 0, 0, 0, 0, 0, 0, 0, 0, 0, 0, 0, 0, 0, 0, 0, 0, 0, 0, 0, 0, 0, 0, 0, 0], [0, 0, 0, 0, 0, 0, 0, 0, 0, 0, 0, 0, 0, 0, 0, 0, 0, 0, 0, 0, 0, 0, 0, 0, 0, 0, 0, 0, 0, 0, 0, 0, 0, 0, 0, 0, 0, 0, 0, 0], [45, 42, 36, 40, 46, 35, 44, 33, 30, 50, 40, 34, 43, 48, 39, 49, 43, 45, 49, 38, 46, 36, 34, 31, 48, 34, 43, 40, 37, 43, 40, 46, 34, 32, 30, 44, 31, 34, 49, 33], [48, 47, 45, 41, 41, 35, 49, 33, 43, 48, 31, 44, 33, 34, 48, 31, 43, 43, 49, 35, 37, 34, 43, 36, 30, 46, 47, 31, 32, 48, 42, 37, 44, 41, 40, 47, 46, 39, 49, 33]], [[0, 0, 0, 0, 0, 0, 0, 0, 0, 0, 0, 0, 0, 0, 0, 0, 0, 0, 0, 0, 0, 0, 0, 0, 0, 0, 0, 0, 0, 0, 0, 0, 0, 0, 0, 0, 0, 0, 0, 0], [0, 0, 0, 0, 0, 0, 0, 0, 0, 0, 0, 0, 0, 0, 0, 0, 0, 0, 0, 0, 0, 0, 0, 0, 0, 0, 0, 0, 0, 0, 0, 0, 0, 0, 0, 0, 0, 0, 0, 0], [0, 0, 0, 0, 0, 0, 0, 0, 0, 0, 0, 0, 0, 0, 0, 0, 0, 0, 0, 0, 0, 0, 0, 0, 0, 0, 0, 0, 0, 0, 0, 0, 0, 0, 0, 0, 0, 0, 0, 0], [0, 0, 0, 0, 0, 0, 0, 0, 0, 0, 0, 0, 0, 0, 0, 0, 0, 0, 0, 0, 0, 0, 0, 0, 0, 0, 0, 0, 0, 0, 0, 0, 0, 0, 0, 0, 0, 0, 0, 0], [0, 0, 0, 0, 0, 0, 0, 0, 0, 0, 0, 0, 0, 0, 0, 0, 0, 0, 0, 0, 0, 0, 0, 0, 0, 0, 0, 0, 0, 0, 0, 0, 0, 0, 0, 0, 0, 0, 0, 0], [0, 0, 0, 0, 0, 0, 0, 0, 0, 0, 0, 0, 0, 0, 0, 0, 0, 0, 0, 0, 0, 0, 0, 0, 0, 0, 0, 0, 0, 0, 0, 0, 0, 0, 0, 0, 0, 0, 0, 0], [0, 0, 0, 0, 0, 0, 0, 0, 0, 0, 0, 0, 0, 0, 0, 0, 0, 0, 0, 0, 0, 0, 0, 0, 0, 0, 0, 0, 0, 0, 0, 0, 0, 0, 0, 0, 0, 0, 0, 0], [46, 39, 34, 44, 46, 35, 35, 30, 38, 43, 38, 48, 38, 37, 44, 46, 50, 44, 41, 34, 38, 44, 34, 48, 47, 42, 46, 45, 43, 31, 46, 44, 40, 38, 47, 44, 31, 36, 50, 35]], [[0, 0, 0, 0, 0, 0, 0, 0, 0, 0, 0, 0, 0, 0, 0, 0, 0, 0, 0, 0, 0, 0, 0, 0, 0, 0, 0, 0, 0, 0, 0, 0, 0, 0, 0, 0, 0, 0, 0, 0], [0, 0, 0, 0, 0, 0, 0, 0, 0, 0, 0, 0, 0, 0, 0, 0, 0, 0, 0, 0, 0, 0, 0, 0, 0, 0, 0, 0, 0, 0, 0, 0, 0, 0, 0, 0, 0, 0, 0, 0], [0, 0, 0, 0, 0, 0, 0, 0, 0, 0, 0, 0, 0, 0, 0, 0, 0, 0, 0, 0, 0, 0, 0, 0, 0, 0, 0, 0, 0, 0, 0, 0, 0, 0, 0, 0, 0, 0, 0, 0], [0, 0, 0, 0, 0, 0, 0, 0, 0, 0, 0, 0, 0, 0, 0, 0, 0, 0, 0, 0, 0, 0, 0, 0, 0, 0, 0, 0, 0, 0, 0, 0, 0, 0, 0, 0, 0, 0, 0, 0], [0, 0, 0, 0, 0, 0, 0, 0, 0, 0, 0, 0, 0, 0, 0, 0, 0, 0, 0, 0, 0, 0, 0, 0, 0, 0, 0, 0, 0, 0, 0, 0, 0, 0, 0, 0, 0, 0, 0, 0], [0, 0, 0, 0, 0, 0, 0, 0, 0, 0, 0, 0, 0, 0, 0, 0, 0, 0, 0, 0, 0, 0, 0, 0, 0, 0, 0, 0, 0, 0, 0, 0, 0, 0, 0, 0, 0, 0, 0, 0], [0, 0, 0, 0, 0, 0, 0, 0, 0, 0, 0, 0, 0, 0, 0, 0, 0, 0, 0, 0, 0, 0, 0, 0, 0, 0, 0, 0, 0, 0, 0, 0, 0, 0, 0, 0, 0, 0, 0, 0], [0, 0, 0, 0, 0, 0, 0, 0, 0, 0, 0, 0, 0, 0, 0, 0, 0, 0, 0, 0, 0, 0, 0, 0, 0, 0, 0, 0, 0, 0, 0, 0, 0, 0, 0, 0, 0, 0, 0, 0]]];

q = [[[9, 112], [25, 109], [5, 108], [12, 122], [14, 114], [14, 116], [19, 109], [25, 120], [9, 112], [21, 125], [13, 124], [17, 112], [19, 125], [9, 124], [12, 120], [10, 107], [17, 108], [8, 120], [13, 109], [8, 110], [13, 125], [7, 115], [25, 120], [17, 125], [7, 120], [19, 124], [11, 113], [6, 111], [15, 116], [21, 106], [6, 125], [9, 108], [22, 110], [9, 110], [20, 109], [21, 109], [7, 113], [7, 120], [12, 116], [18, 124]], [[23, 121], [8, 108], [15, 122], [23, 107], [7, 119], [7, 117], [10, 124], [7, 121], [16, 122], [25, 124], [9, 112], [11, 115], [23, 120], [22, 113], [9, 116], [12, 118], [17, 107], [5, 118], [21, 122], [13, 118], [20, 109], [25, 113], [8, 115], [22, 122], [9, 106], [13, 109], [10, 112], [7, 116], [15, 125], [8, 116], [19, 117], [6, 109], [22, 115], [14, 107], [22, 116], [17, 120], [8, 122], [14, 114], [19, 112], [23, 125]], [[20, 106], [14, 124], [16, 110], [12, 116], [19, 109], [5, 118], [20, 123], [11, 122], [18, 124], [14, 116], [23, 123], [19, 121], [8, 119], [17, 107], [22, 120], [13, 105], [5, 118], [19, 106], [15, 108], [20, 122], [22, 124], [20, 118], [23, 123], [17, 105], [11, 118], [5, 125], [23, 125], [12, 114], [6, 120], [15, 113], [14, 125], [24, 117], [25, 124], [17, 122], [17, 116], [19, 122], [18, 114], [7, 115], [10, 109], [19, 118]], [[17, 107], [19, 112], [25, 112], [20, 124], [9, 115], [7, 109], [20, 117], [11, 114], [22, 106], [23, 112], [5, 118], [16, 121], [9, 123], [18, 119], [21, 123], [24, 121], [22, 107], [8, 111], [13, 113], [25, 114], [18, 125], [10, 116], [25, 114], [11, 107], [9, 105], [23, 122], [5, 123], [17, 117], [20, 114], [25, 121], [22, 117], [18, 111], [24, 116], [17, 123], [7, 118], [11, 115], [5, 123], [23, 121], [9, 117], [14, 121]], [[19, 113], [24, 116], [5, 125], [8, 106], [5, 106], [11, 106], [8, 120], [14, 125], [14, 108], [14, 110], [10, 108], [6, 112], [10, 118], [25, 122], [13, 117], [14, 110], [24, 113], [16, 123], [8, 105], [24, 118], [16, 121], [19, 124], [15, 119], [18, 107], [13, 125], [22, 108], [18, 109], [21, 123], [12, 118], [10, 122], [13, 121], [11, 125], [14, 117], [7, 124], [21, 106], [6, 107], [11, 119], [16, 116], [12, 105], [24, 114]], [[18, 115], [24, 117], [20, 108], [21, 121], [13, 108], [14, 106], [13, 117], [23, 117], [5, 114], [22, 110], [11, 119], [10, 122], [5, 120], [7, 112], [12, 120], [7, 116], [12, 105], [11, 117], [25, 118], [20, 121], [13, 125], [11, 108], [6, 112], [10, 109], [5, 114], [5, 105], [23, 119], [22, 111], [14, 116], [11, 118], [10, 108], [14, 105], [14, 105], [24, 117], [12, 105], [8, 117], [9, 112], [19, 105], [23, 106], [25, 111]], [[16, 125], [17, 112], [18, 119], [14, 107], [20, 115], [11, 108], [25, 120], [14, 124], [20, 115], [5, 122], [6, 123], [16, 125], [8, 123], [13, 124], [20, 109], [10, 115], [14, 112], [15, 121], [14, 111], [17, 121], [19, 114], [17, 120], [15, 119], [18, 118], [22, 116], [10, 108], [24, 125], [23, 108], [17, 118], [11, 122], [18, 109], [5, 111], [13, 116], [21, 112], [7, 110], [25, 125], [14, 122], [6, 114], [21, 122], [6, 116]], [[7, 116], [19, 124], [14, 117], [25, 120], [18, 107], [13, 108], [18, 109], [17, 113], [22, 114], [10, 124], [9, 116], [7, 110], [13, 111], [14, 105], [9, 107], [25, 117], [13, 108], [7, 124], [8, 115], [11, 117], [9, 106], [6, 121], [22, 112], [9, 110], [14, 122], [6, 112], [11, 114], [16, 117], [8, 116], [17, 106], [5, 123], [6, 121], [20, 105], [6, 122], [21, 124], [9, 120], [21, 115], [18, 117], [17, 121], [12, 124]]];
Q = [[55, 463], [58, 465], [63, 469], [64, 465], [57, 462], [57, 454], [60, 468], [53, 461]];
